p cnf 185 416
1 -2 0
1 -3 0
2 3 -1 0
4 -1 0
1 -4 0
5 -1 0
1 -5 0
6 -7 0
6 -8 0
6 -9 0
6 -10 0
6 -11 0
6 -12 0
6 -13 0
14 0
15 -6 0
6 -15 0
-8 16 0
-9 16 0
-10 16 0
-11 16 0
-12 16 0
-13 16 0
8 9 10 11 12 13 -16 0
17 -16 0
16 -17 0
-9 18 0
-10 18 0
-11 18 0
-12 18 0
-13 18 0
9 10 11 12 13 -18 0
19 -18 0
18 -19 0
-10 20 0
-11 20 0
-12 20 0
-13 20 0
10 11 12 13 -20 0
21 -20 0
20 -21 0
22 -20 0
20 -22 0
23 -20 0
20 -23 0
24 -20 0
20 -24 0
25 -26 0
25 -27 0
25 -28 0
25 -29 0
25 -30 0
25 -31 0
25 -32 0
33 0
34 -25 0
25 -34 0
-27 35 0
-28 35 0
-29 35 0
-30 35 0
-31 35 0
-32 35 0
27 28 29 30 31 32 -35 0
36 -35 0
35 -36 0
-28 37 0
-29 37 0
-30 37 0
-31 37 0
-32 37 0
28 29 30 31 32 -37 0
38 -37 0
37 -38 0
-29 39 0
-30 39 0
-31 39 0
-32 39 0
29 30 31 32 -39 0
40 -39 0
39 -40 0
41 -39 0
39 -41 0
42 -39 0
39 -42 0
43 -39 0
39 -43 0
44 -45 0
44 -46 0
44 -47 0
45 46 47 -44 0
48 -44 0
44 -48 0
-46 49 0
-47 49 0
46 47 -49 0
50 -49 0
49 -50 0
51 -47 0
47 -51 0
52 -53 0
52 -54 0
52 -55 0
52 -56 0
52 -57 0
53 54 55 56 57 -52 0
58 -52 0
52 -58 0
-54 59 0
-55 59 0
-56 59 0
-57 59 0
54 55 56 57 -59 0
60 -59 0
59 -60 0
-55 61 0
-56 61 0
-57 61 0
55 56 57 -61 0
62 -61 0
61 -62 0
63 -61 0
61 -63 0
64 -61 0
61 -64 0
-2 65 0
-3 65 0
65 -66 0
65 -67 0
65 -68 0
65 -69 0
2 3 66 67 68 69 -65 0
70 -65 0
65 -70 0
-2 71 0
-3 71 0
-67 71 0
-68 71 0
-69 71 0
2 3 67 68 69 -71 0
72 -71 0
71 -72 0
-2 73 0
-3 73 0
-68 73 0
-69 73 0
2 3 68 69 -73 0
74 -73 0
73 -74 0
-2 75 0
-3 75 0
-69 75 0
2 3 69 -75 0
76 -75 0
75 -76 0
-55 77 0
-56 77 0
-57 77 0
77 -78 0
77 -79 0
77 -80 0
77 -81 0
82 0
83 -77 0
77 -83 0
-55 84 0
-56 84 0
-57 84 0
-79 84 0
-80 84 0
-81 84 0
85 0
86 -84 0
84 -86 0
-55 87 0
-56 87 0
-57 87 0
-80 87 0
-81 87 0
55 56 57 80 81 -87 0
88 -87 0
87 -88 0
-55 89 0
-56 89 0
-57 89 0
-81 89 0
55 56 57 81 -89 0
90 -89 0
89 -90 0
-2 91 0
-3 91 0
91 -92 0
91 -93 0
91 -94 0
2 3 92 93 94 -91 0
95 -91 0
91 -95 0
-2 96 0
-3 96 0
-93 96 0
-94 96 0
2 3 93 94 -96 0
97 -96 0
96 -97 0
-2 98 0
-3 98 0
-94 98 0
2 3 94 -98 0
99 -98 0
98 -99 0
100 -101 0
100 -102 0
100 -103 0
101 102 103 -100 0
104 -100 0
100 -104 0
-102 105 0
-103 105 0
102 103 -105 0
106 -105 0
105 -106 0
107 -103 0
103 -107 0
-29 108 0
-30 108 0
-31 108 0
-32 108 0
108 -109 0
108 -110 0
111 0
112 -108 0
108 -112 0
-29 113 0
-30 113 0
-31 113 0
-32 113 0
-110 113 0
29 30 31 32 110 -113 0
114 -113 0
113 -114 0
-29 115 0
-30 115 0
-31 115 0
-32 115 0
-110 115 0
115 -116 0
115 -117 0
118 0
119 -115 0
115 -119 0
-29 120 0
-30 120 0
-31 120 0
-32 120 0
-110 120 0
-117 120 0
121 0
122 -120 0
120 -122 0
123 -124 0
123 -125 0
123 -126 0
123 -127 0
123 -128 0
123 -129 0
123 -130 0
123 -131 0
132 0
133 -123 0
123 -133 0
-125 134 0
-126 134 0
-127 134 0
-128 134 0
-129 134 0
-130 134 0
-131 134 0
135 0
136 -134 0
134 -136 0
-126 137 0
-127 137 0
-128 137 0
-129 137 0
-130 137 0
-131 137 0
138 0
139 -137 0
137 -139 0
-127 140 0
-128 140 0
-129 140 0
-130 140 0
-131 140 0
127 128 129 130 131 -140 0
141 -140 0
140 -141 0
-128 142 0
-129 142 0
-130 142 0
-131 142 0
128 129 130 131 -142 0
143 -142 0
142 -143 0
144 -142 0
142 -144 0
145 -142 0
142 -145 0
146 -142 0
142 -146 0
147 -148 0
147 -149 0
147 -150 0
147 -151 0
147 -152 0
147 -153 0
154 0
155 -147 0
147 -155 0
-149 156 0
-150 156 0
-151 156 0
-152 156 0
-153 156 0
149 150 151 152 153 -156 0
157 -156 0
156 -157 0
158 -156 0
156 -158 0
159 -156 0
156 -159 0
160 -156 0
156 -160 0
161 -156 0
156 -161 0
-9 162 0
-10 162 0
-11 162 0
-12 162 0
-13 162 0
162 -163 0
162 -164 0
165 0
166 -162 0
162 -166 0
-9 167 0
-10 167 0
-11 167 0
-12 167 0
-13 167 0
-164 167 0
9 10 11 12 13 164 -167 0
168 -167 0
167 -168 0
-46 169 0
-47 169 0
169 -170 0
169 -171 0
169 -172 0
46 47 170 171 172 -169 0
173 -169 0
169 -173 0
-46 174 0
-47 174 0
-171 174 0
-172 174 0
46 47 171 172 -174 0
175 -174 0
174 -175 0
-46 176 0
-47 176 0
-172 176 0
46 47 172 -176 0
177 -176 0
176 -177 0
-149 178 0
-150 178 0
-151 178 0
-152 178 0
-153 178 0
178 -179 0
178 -180 0
181 0
182 -178 0
178 -182 0
-149 183 0
-150 183 0
-151 183 0
-152 183 0
-153 183 0
-180 183 0
184 0
185 -183 0
183 -185 0
4 0
15 0
34 0
38 0
48 0
50 0
-51 0
58 0
70 0
76 0
83 0
95 0
104 0
112 0
119 0
133 0
155 0
157 0
158 0
166 0
173 0
182 0
